graph size, truck no, time factor, best in currant graph found by bruteforce, generations, population, solution by genetic, execution time
7, 2, 1, 262, 2000, 2, 281, 254
7, 2, 1, 262, 2000, 4, 281, 492
7, 2, 1, 262, 2000, 8, 281, 955
7, 2, 1, 262, 2000, 10, 281, 1199
7, 2, 1, 262, 2000, 12, 281, 1413
7, 2, 1, 262, 2000, 14, 281, 1630
7, 2, 1, 262, 2000, 16, 281, 1852
7, 2, 1, 262, 4000, 2, 281, 253
7, 2, 1, 262, 4000, 4, 281, 492
7, 2, 1, 262, 4000, 8, 281, 950
7, 2, 1, 262, 4000, 10, 281, 1248
7, 2, 1, 262, 4000, 12, 281, 1466
7, 2, 1, 262, 4000, 14, 281, 1632
7, 2, 1, 262, 4000, 16, 281, 1855
7, 2, 1, 262, 6000, 2, 281, 254
7, 2, 1, 262, 6000, 4, 281, 492
7, 2, 1, 262, 6000, 8, 281, 952
7, 2, 1, 262, 6000, 10, 281, 1223
7, 2, 1, 262, 6000, 12, 281, 1418
7, 2, 1, 262, 6000, 14, 281, 1631
7, 2, 1, 262, 6000, 16, 281, 1850
7, 2, 1, 262, 8000, 2, 281, 254
7, 2, 1, 262, 8000, 4, 281, 493
7, 2, 1, 262, 8000, 8, 281, 955
7, 2, 1, 262, 8000, 10, 281, 1201
7, 2, 1, 262, 8000, 12, 281, 1415
7, 2, 1, 262, 8000, 14, 281, 1633
7, 2, 1, 262, 8000, 16, 281, 1847
7, 2, 1, 262, 10000, 2, 281, 254
7, 2, 1, 262, 10000, 4, 281, 490
7, 2, 1, 262, 10000, 8, 281, 951
7, 2, 1, 262, 10000, 10, 281, 1195
7, 2, 1, 262, 10000, 12, 281, 1415
7, 2, 1, 262, 10000, 14, 281, 1632
7, 2, 1, 262, 10000, 16, 281, 1852
7, 2, 1, 262, 15000, 2, 281, 254
7, 2, 1, 262, 15000, 4, 281, 492
7, 2, 1, 262, 15000, 8, 281, 950
7, 2, 1, 262, 15000, 10, 281, 1197
7, 2, 1, 262, 15000, 12, 281, 1418
7, 2, 1, 262, 15000, 14, 281, 1636
7, 2, 1, 262, 15000, 16, 281, 1849
7, 2, 1, 262, 20000, 2, 281, 254
7, 2, 1, 262, 20000, 4, 281, 490
7, 2, 1, 262, 20000, 8, 281, 948
7, 2, 1, 262, 20000, 10, 281, 1197
7, 2, 1, 262, 20000, 12, 281, 1413
7, 2, 1, 262, 20000, 14, 281, 1632
7, 2, 1, 262, 20000, 16, 281, 1851
7, 3, 1, 262, 2000, 2, 262, 218
7, 3, 1, 262, 2000, 4, 262, 412
7, 3, 1, 262, 2000, 8, 262, 783
7, 3, 1, 262, 2000, 10, 262, 987
7, 3, 1, 262, 2000, 12, 262, 1158
7, 3, 1, 262, 2000, 14, 262, 1368
7, 3, 1, 262, 2000, 16, 262, 1587
7, 3, 1, 262, 4000, 2, 262, 223
7, 3, 1, 262, 4000, 4, 262, 413
7, 3, 1, 262, 4000, 8, 262, 786
7, 3, 1, 262, 4000, 10, 262, 1018
7, 3, 1, 262, 4000, 12, 262, 1233
7, 3, 1, 262, 4000, 14, 262, 1415
7, 3, 1, 262, 4000, 16, 262, 1586
7, 3, 1, 262, 6000, 2, 262, 235
7, 3, 1, 262, 6000, 4, 262, 426
7, 3, 1, 262, 6000, 8, 262, 807
7, 3, 1, 262, 6000, 10, 262, 994
7, 3, 1, 262, 6000, 12, 262, 1159
7, 3, 1, 262, 6000, 14, 262, 1332
7, 3, 1, 262, 6000, 16, 262, 1505
7, 3, 1, 262, 8000, 2, 262, 219
7, 3, 1, 262, 8000, 4, 262, 411
7, 3, 1, 262, 8000, 8, 262, 783
7, 3, 1, 262, 8000, 10, 262, 991
7, 3, 1, 262, 8000, 12, 262, 1175
7, 3, 1, 262, 8000, 14, 262, 1330
7, 3, 1, 262, 8000, 16, 262, 1507
7, 3, 1, 262, 10000, 2, 262, 219
7, 3, 1, 262, 10000, 4, 262, 411
7, 3, 1, 262, 10000, 8, 262, 782
7, 3, 1, 262, 10000, 10, 262, 984
7, 3, 1, 262, 10000, 12, 262, 1154
7, 3, 1, 262, 10000, 14, 262, 1330
7, 3, 1, 262, 10000, 16, 262, 1501
7, 3, 1, 262, 15000, 2, 262, 220
7, 3, 1, 262, 15000, 4, 262, 411
7, 3, 1, 262, 15000, 8, 262, 782
7, 3, 1, 262, 15000, 10, 262, 985
7, 3, 1, 262, 15000, 12, 262, 1155
7, 3, 1, 262, 15000, 14, 262, 1330
7, 3, 1, 262, 15000, 16, 262, 1506
7, 3, 1, 262, 20000, 2, 262, 220
7, 3, 1, 262, 20000, 4, 262, 411
7, 3, 1, 262, 20000, 8, 262, 780
7, 3, 1, 262, 20000, 10, 262, 980
7, 3, 1, 262, 20000, 12, 262, 1160
7, 3, 1, 262, 20000, 14, 262, 1328
7, 3, 1, 262, 20000, 16, 262, 1503
7, 4, 1, 262, 2000, 2, 262, 265
7, 4, 1, 262, 2000, 4, 262, 499
7, 4, 1, 262, 2000, 8, 262, 953
7, 4, 1, 262, 2000, 10, 262, 1192
7, 4, 1, 262, 2000, 12, 262, 1410
7, 4, 1, 262, 2000, 14, 262, 1612
7, 4, 1, 262, 2000, 16, 262, 1832
7, 4, 1, 262, 4000, 2, 262, 266
7, 4, 1, 262, 4000, 4, 262, 500
7, 4, 1, 262, 4000, 8, 262, 950
7, 4, 1, 262, 4000, 10, 262, 1197
7, 4, 1, 262, 4000, 12, 262, 1400
7, 4, 1, 262, 4000, 14, 262, 1621
7, 4, 1, 262, 4000, 16, 262, 1824
7, 4, 1, 262, 6000, 2, 262, 267
7, 4, 1, 262, 6000, 4, 262, 501
7, 4, 1, 262, 6000, 8, 262, 951
7, 4, 1, 262, 6000, 10, 262, 1205
7, 4, 1, 262, 6000, 12, 262, 1403
7, 4, 1, 262, 6000, 14, 262, 1612
7, 4, 1, 262, 6000, 16, 262, 1830
7, 4, 1, 262, 8000, 2, 262, 266
7, 4, 1, 262, 8000, 4, 262, 502
7, 4, 1, 262, 8000, 8, 262, 952
7, 4, 1, 262, 8000, 10, 262, 1193
7, 4, 1, 262, 8000, 12, 262, 1410
7, 4, 1, 262, 8000, 14, 262, 1615
7, 4, 1, 262, 8000, 16, 262, 1834
7, 4, 1, 262, 10000, 2, 262, 266
7, 4, 1, 262, 10000, 4, 262, 501
7, 4, 1, 262, 10000, 8, 262, 949
7, 4, 1, 262, 10000, 10, 262, 1194
7, 4, 1, 262, 10000, 12, 262, 1437
7, 4, 1, 262, 10000, 14, 262, 1613
7, 4, 1, 262, 10000, 16, 262, 1833
7, 4, 1, 262, 15000, 2, 262, 265
7, 4, 1, 262, 15000, 4, 262, 499
7, 4, 1, 262, 15000, 8, 262, 982
7, 4, 1, 262, 15000, 10, 262, 1201
7, 4, 1, 262, 15000, 12, 262, 1399
7, 4, 1, 262, 15000, 14, 262, 1619
7, 4, 1, 262, 15000, 16, 262, 1829
7, 4, 1, 262, 20000, 2, 262, 266
7, 4, 1, 262, 20000, 4, 262, 499
7, 4, 1, 262, 20000, 8, 262, 947
7, 4, 1, 262, 20000, 10, 262, 1192
7, 4, 1, 262, 20000, 12, 262, 1405
7, 4, 1, 262, 20000, 14, 262, 1616
7, 4, 1, 262, 20000, 16, 262, 1826
8, 2, 1, 166, 2000, 2, 179, 391
8, 2, 1, 166, 2000, 4, 179, 758
8, 2, 1, 166, 2000, 8, 179, 1454
8, 2, 1, 166, 2000, 10, 179, 1837
8, 2, 1, 166, 2000, 12, 179, 2165
8, 2, 1, 166, 2000, 14, 179, 2487
8, 2, 1, 166, 2000, 16, 179, 2794
8, 2, 1, 166, 4000, 2, 179, 388
8, 2, 1, 166, 4000, 4, 179, 745
8, 2, 1, 166, 4000, 8, 179, 1436
8, 2, 1, 166, 4000, 10, 179, 1850
8, 2, 1, 166, 4000, 12, 179, 2153
8, 2, 1, 166, 4000, 14, 179, 2500
8, 2, 1, 166, 4000, 16, 179, 2880
8, 2, 1, 166, 6000, 2, 179, 389
8, 2, 1, 166, 6000, 4, 179, 752
8, 2, 1, 166, 6000, 8, 179, 1454
8, 2, 1, 166, 6000, 10, 179, 1817
8, 2, 1, 166, 6000, 12, 179, 2164
8, 2, 1, 166, 6000, 14, 179, 2504
8, 2, 1, 166, 6000, 16, 179, 2836
8, 2, 1, 166, 8000, 2, 179, 392
8, 2, 1, 166, 8000, 4, 179, 749
8, 2, 1, 166, 8000, 8, 179, 1445
8, 2, 1, 166, 8000, 10, 179, 1829
8, 2, 1, 166, 8000, 12, 179, 2178
8, 2, 1, 166, 8000, 14, 179, 2491
8, 2, 1, 166, 8000, 16, 179, 2837
8, 2, 1, 166, 10000, 2, 179, 387
8, 2, 1, 166, 10000, 4, 179, 745
8, 2, 1, 166, 10000, 8, 179, 1465
8, 2, 1, 166, 10000, 10, 179, 1845
8, 2, 1, 166, 10000, 12, 179, 2131
8, 2, 1, 166, 10000, 14, 179, 2503
8, 2, 1, 166, 10000, 16, 179, 2844
8, 2, 1, 166, 15000, 2, 179, 389
8, 2, 1, 166, 15000, 4, 179, 751
8, 2, 1, 166, 15000, 8, 179, 1448
8, 2, 1, 166, 15000, 10, 179, 1833
8, 2, 1, 166, 15000, 12, 179, 2159
8, 2, 1, 166, 15000, 14, 179, 2512
8, 2, 1, 166, 15000, 16, 179, 2852
8, 2, 1, 166, 20000, 2, 179, 391
8, 2, 1, 166, 20000, 4, 179, 744
8, 2, 1, 166, 20000, 8, 179, 1453
8, 2, 1, 166, 20000, 10, 179, 1819
8, 2, 1, 166, 20000, 12, 179, 2169
8, 2, 1, 166, 20000, 14, 179, 2496
8, 2, 1, 166, 20000, 16, 179, 2852
8, 3, 1, 166, 2000, 2, 166, 257
8, 3, 1, 166, 2000, 4, 166, 485
8, 3, 1, 166, 2000, 8, 166, 930
8, 3, 1, 166, 2000, 10, 166, 1174
8, 3, 1, 166, 2000, 12, 166, 1382
8, 3, 1, 166, 2000, 14, 166, 1590
8, 3, 1, 166, 2000, 16, 166, 1799
8, 3, 1, 166, 4000, 2, 166, 258
8, 3, 1, 166, 4000, 4, 166, 487
8, 3, 1, 166, 4000, 8, 166, 937
8, 3, 1, 166, 4000, 10, 166, 1177
8, 3, 1, 166, 4000, 12, 166, 1387
8, 3, 1, 166, 4000, 14, 166, 1587
8, 3, 1, 166, 4000, 16, 166, 1801
8, 3, 1, 166, 6000, 2, 166, 257
8, 3, 1, 166, 6000, 4, 166, 484
8, 3, 1, 166, 6000, 8, 166, 932
8, 3, 1, 166, 6000, 10, 166, 1175
8, 3, 1, 166, 6000, 12, 166, 1385
8, 3, 1, 166, 6000, 14, 166, 1591
8, 3, 1, 166, 6000, 16, 166, 1800
8, 3, 1, 166, 8000, 2, 166, 258
8, 3, 1, 166, 8000, 4, 166, 484
8, 3, 1, 166, 8000, 8, 166, 937
8, 3, 1, 166, 8000, 10, 166, 1174
8, 3, 1, 166, 8000, 12, 166, 1380
8, 3, 1, 166, 8000, 14, 166, 1589
8, 3, 1, 166, 8000, 16, 166, 1802
8, 3, 1, 166, 10000, 2, 166, 257
8, 3, 1, 166, 10000, 4, 166, 487
8, 3, 1, 166, 10000, 8, 166, 936
8, 3, 1, 166, 10000, 10, 166, 1177
8, 3, 1, 166, 10000, 12, 166, 1382
8, 3, 1, 166, 10000, 14, 166, 1591
8, 3, 1, 166, 10000, 16, 166, 1796
8, 3, 1, 166, 15000, 2, 166, 257
8, 3, 1, 166, 15000, 4, 166, 486
8, 3, 1, 166, 15000, 8, 166, 936
8, 3, 1, 166, 15000, 10, 166, 1173
8, 3, 1, 166, 15000, 12, 166, 1393
8, 3, 1, 166, 15000, 14, 166, 1594
8, 3, 1, 166, 15000, 16, 166, 1799
8, 3, 1, 166, 20000, 2, 166, 258
8, 3, 1, 166, 20000, 4, 166, 488
8, 3, 1, 166, 20000, 8, 166, 938
8, 3, 1, 166, 20000, 10, 166, 1176
8, 3, 1, 166, 20000, 12, 166, 1392
8, 3, 1, 166, 20000, 14, 166, 1587
8, 3, 1, 166, 20000, 16, 166, 1792
8, 4, 1, 166, 2000, 2, 166, 287
8, 4, 1, 166, 2000, 4, 166, 542
8, 4, 1, 166, 2000, 8, 166, 1033
8, 4, 1, 166, 2000, 10, 166, 1298
8, 4, 1, 166, 2000, 12, 166, 1533
8, 4, 1, 166, 2000, 14, 166, 1753
8, 4, 1, 166, 2000, 16, 166, 1986
8, 4, 1, 166, 4000, 2, 166, 289
8, 4, 1, 166, 4000, 4, 166, 542
8, 4, 1, 166, 4000, 8, 166, 1030
8, 4, 1, 166, 4000, 10, 166, 1303
8, 4, 1, 166, 4000, 12, 166, 1524
8, 4, 1, 166, 4000, 14, 166, 1759
8, 4, 1, 166, 4000, 16, 166, 1979
8, 4, 1, 166, 6000, 2, 166, 290
8, 4, 1, 166, 6000, 4, 166, 543
8, 4, 1, 166, 6000, 8, 166, 1032
8, 4, 1, 166, 6000, 10, 166, 1300
8, 4, 1, 166, 6000, 12, 166, 1522
8, 4, 1, 166, 6000, 14, 166, 1752
8, 4, 1, 166, 6000, 16, 166, 1980
8, 4, 1, 166, 8000, 2, 166, 290
8, 4, 1, 166, 8000, 4, 166, 541
8, 4, 1, 166, 8000, 8, 166, 1035
8, 4, 1, 166, 8000, 10, 166, 1299
8, 4, 1, 166, 8000, 12, 166, 1528
8, 4, 1, 166, 8000, 14, 166, 1758
8, 4, 1, 166, 8000, 16, 166, 1983
8, 4, 1, 166, 10000, 2, 166, 291
8, 4, 1, 166, 10000, 4, 166, 543
8, 4, 1, 166, 10000, 8, 166, 1027
8, 4, 1, 166, 10000, 10, 166, 1308
8, 4, 1, 166, 10000, 12, 166, 1524
8, 4, 1, 166, 10000, 14, 166, 1753
8, 4, 1, 166, 10000, 16, 166, 1980
8, 4, 1, 166, 15000, 2, 166, 289
8, 4, 1, 166, 15000, 4, 166, 542
8, 4, 1, 166, 15000, 8, 166, 1047
8, 4, 1, 166, 15000, 10, 166, 1299
8, 4, 1, 166, 15000, 12, 166, 1524
8, 4, 1, 166, 15000, 14, 166, 1756
8, 4, 1, 166, 15000, 16, 166, 1989
8, 4, 1, 166, 20000, 2, 166, 288
8, 4, 1, 166, 20000, 4, 166, 544
8, 4, 1, 166, 20000, 8, 166, 1029
8, 4, 1, 166, 20000, 10, 166, 1305
8, 4, 1, 166, 20000, 12, 166, 1523
8, 4, 1, 166, 20000, 14, 166, 1760
8, 4, 1, 166, 20000, 16, 166, 1985
9, 2, 1, 144, 2000, 2, 152, 670
9, 2, 1, 144, 2000, 4, 152, 1311
9, 2, 1, 144, 2000, 8, 152, 2572
9, 2, 1, 144, 2000, 10, 152, 3251
9, 2, 1, 144, 2000, 12, 152, 3835
9, 2, 1, 144, 2000, 14, 152, 4430
9, 2, 1, 144, 2000, 16, 152, 5038
9, 2, 1, 144, 4000, 2, 152, 670
9, 2, 1, 144, 4000, 4, 152, 1318
9, 2, 1, 144, 4000, 8, 152, 2569
9, 2, 1, 144, 4000, 10, 152, 3280
9, 2, 1, 144, 4000, 12, 152, 3878
9, 2, 1, 144, 4000, 14, 152, 4465
9, 2, 1, 144, 4000, 16, 152, 5039
9, 2, 1, 144, 6000, 2, 152, 661
9, 2, 1, 144, 6000, 4, 152, 1312
9, 2, 1, 144, 6000, 8, 152, 2576
9, 2, 1, 144, 6000, 10, 152, 3250
9, 2, 1, 144, 6000, 12, 152, 3840
9, 2, 1, 144, 6000, 14, 152, 4454
9, 2, 1, 144, 6000, 16, 152, 5049
9, 2, 1, 144, 8000, 2, 152, 665
9, 2, 1, 144, 8000, 4, 152, 1311
9, 2, 1, 144, 8000, 8, 152, 2555
9, 2, 1, 144, 8000, 10, 152, 3206
9, 2, 1, 144, 8000, 12, 152, 3846
9, 2, 1, 144, 8000, 14, 152, 4409
9, 2, 1, 144, 8000, 16, 152, 5027
9, 2, 1, 144, 10000, 2, 152, 663
9, 2, 1, 144, 10000, 4, 152, 1326
9, 2, 1, 144, 10000, 8, 152, 2569
9, 2, 1, 144, 10000, 10, 152, 3243
9, 2, 1, 144, 10000, 12, 152, 3830
9, 2, 1, 144, 10000, 14, 152, 4444
9, 2, 1, 144, 10000, 16, 152, 5053
9, 2, 1, 144, 15000, 2, 152, 665
9, 2, 1, 144, 15000, 4, 152, 1304
9, 2, 1, 144, 15000, 8, 152, 2574
9, 2, 1, 144, 15000, 10, 152, 3223
9, 2, 1, 144, 15000, 12, 152, 3847
9, 2, 1, 144, 15000, 14, 152, 4430
9, 2, 1, 144, 15000, 16, 152, 5057
9, 2, 1, 144, 20000, 2, 152, 663
9, 2, 1, 144, 20000, 4, 152, 1311
9, 2, 1, 144, 20000, 8, 152, 2546
9, 2, 1, 144, 20000, 10, 152, 3232
9, 2, 1, 144, 20000, 12, 152, 3840
9, 2, 1, 144, 20000, 14, 152, 4437
9, 2, 1, 144, 20000, 16, 152, 5048
9, 3, 1, 144, 2000, 2, 149, 297
9, 3, 1, 144, 2000, 4, 149, 567
9, 3, 1, 144, 2000, 8, 149, 1091
9, 3, 1, 144, 2000, 10, 149, 1371
9, 3, 1, 144, 2000, 12, 149, 1611
9, 3, 1, 144, 2000, 14, 149, 1849
9, 3, 1, 144, 2000, 16, 149, 2112
9, 3, 1, 144, 4000, 2, 149, 296
9, 3, 1, 144, 4000, 4, 149, 566
9, 3, 1, 144, 4000, 8, 149, 1086
9, 3, 1, 144, 4000, 10, 149, 1365
9, 3, 1, 144, 4000, 12, 149, 1615
9, 3, 1, 144, 4000, 14, 149, 1863
9, 3, 1, 144, 4000, 16, 149, 2109
9, 3, 1, 144, 6000, 2, 149, 296
9, 3, 1, 144, 6000, 4, 149, 561
9, 3, 1, 144, 6000, 8, 149, 1087
9, 3, 1, 144, 6000, 10, 149, 1363
9, 3, 1, 144, 6000, 12, 149, 1613
9, 3, 1, 144, 6000, 14, 149, 1851
9, 3, 1, 144, 6000, 16, 149, 2103
9, 3, 1, 144, 8000, 2, 149, 297
9, 3, 1, 144, 8000, 4, 149, 566
9, 3, 1, 144, 8000, 8, 149, 1088
9, 3, 1, 144, 8000, 10, 149, 1370
9, 3, 1, 144, 8000, 12, 149, 1618
9, 3, 1, 144, 8000, 14, 149, 1868
9, 3, 1, 144, 8000, 16, 149, 2094
9, 3, 1, 144, 10000, 2, 149, 296
9, 3, 1, 144, 10000, 4, 149, 566
9, 3, 1, 144, 10000, 8, 149, 1093
9, 3, 1, 144, 10000, 10, 149, 1366
9, 3, 1, 144, 10000, 12, 149, 1611
9, 3, 1, 144, 10000, 14, 149, 1871
9, 3, 1, 144, 10000, 16, 149, 2107
9, 3, 1, 144, 15000, 2, 149, 296
9, 3, 1, 144, 15000, 4, 149, 564
9, 3, 1, 144, 15000, 8, 149, 1089
9, 3, 1, 144, 15000, 10, 149, 1364
9, 3, 1, 144, 15000, 12, 149, 1620
9, 3, 1, 144, 15000, 14, 149, 1850
9, 3, 1, 144, 15000, 16, 149, 2114
9, 3, 1, 144, 20000, 2, 149, 298
9, 3, 1, 144, 20000, 4, 149, 589
9, 3, 1, 144, 20000, 8, 149, 1089
9, 3, 1, 144, 20000, 10, 149, 1367
9, 3, 1, 144, 20000, 12, 149, 1612
9, 3, 1, 144, 20000, 14, 149, 1858
9, 3, 1, 144, 20000, 16, 149, 2099
9, 4, 1, 144, 2000, 2, 148, 299
9, 4, 1, 144, 2000, 4, 148, 567
9, 4, 1, 144, 2000, 8, 148, 1081
9, 4, 1, 144, 2000, 10, 148, 1361
9, 4, 1, 144, 2000, 12, 148, 1594
9, 4, 1, 144, 2000, 14, 148, 1840
9, 4, 1, 144, 2000, 16, 148, 2075
9, 4, 1, 144, 4000, 2, 148, 301
9, 4, 1, 144, 4000, 4, 148, 566
9, 4, 1, 144, 4000, 8, 148, 1086
9, 4, 1, 144, 4000, 10, 148, 1362
9, 4, 1, 144, 4000, 12, 148, 1605
9, 4, 1, 144, 4000, 14, 148, 1838
9, 4, 1, 144, 4000, 16, 148, 2091
9, 4, 1, 144, 6000, 2, 148, 300
9, 4, 1, 144, 6000, 4, 148, 569
9, 4, 1, 144, 6000, 8, 148, 1082
9, 4, 1, 144, 6000, 10, 148, 1360
9, 4, 1, 144, 6000, 12, 148, 1598
9, 4, 1, 144, 6000, 14, 148, 1838
9, 4, 1, 144, 6000, 16, 148, 2083
9, 4, 1, 144, 8000, 2, 148, 299
9, 4, 1, 144, 8000, 4, 148, 579
9, 4, 1, 144, 8000, 8, 148, 1085
9, 4, 1, 144, 8000, 10, 148, 1360
9, 4, 1, 144, 8000, 12, 148, 1601
9, 4, 1, 144, 8000, 14, 148, 1836
9, 4, 1, 144, 8000, 16, 148, 2096
9, 4, 1, 144, 10000, 2, 148, 299
9, 4, 1, 144, 10000, 4, 148, 569
9, 4, 1, 144, 10000, 8, 148, 1087
9, 4, 1, 144, 10000, 10, 148, 1361
9, 4, 1, 144, 10000, 12, 148, 1601
9, 4, 1, 144, 10000, 14, 148, 1842
9, 4, 1, 144, 10000, 16, 148, 2085
9, 4, 1, 144, 15000, 2, 148, 325
9, 4, 1, 144, 15000, 4, 148, 600
9, 4, 1, 144, 15000, 8, 148, 1096
9, 4, 1, 144, 15000, 10, 148, 1378
9, 4, 1, 144, 15000, 12, 148, 1624
9, 4, 1, 144, 15000, 14, 148, 1854
9, 4, 1, 144, 15000, 16, 148, 2108
9, 4, 1, 144, 20000, 2, 148, 303
9, 4, 1, 144, 20000, 4, 148, 572
9, 4, 1, 144, 20000, 8, 148, 1092
9, 4, 1, 144, 20000, 10, 148, 1364
9, 4, 1, 144, 20000, 12, 148, 1616
9, 4, 1, 144, 20000, 14, 148, 1844
9, 4, 1, 144, 20000, 16, 148, 2084
10, 2, 1, 116, 2000, 2, 134, 1084
10, 2, 1, 116, 2000, 4, 134, 2170
10, 2, 1, 116, 2000, 8, 134, 4287
10, 2, 1, 116, 2000, 10, 134, 5398
10, 2, 1, 116, 2000, 12, 134, 6302
10, 2, 1, 116, 2000, 14, 134, 7337
10, 2, 1, 116, 2000, 16, 134, 8791
10, 2, 1, 116, 4000, 2, 134, 1084
10, 2, 1, 116, 4000, 4, 134, 2184
10, 2, 1, 116, 4000, 8, 134, 4430
10, 2, 1, 116, 4000, 10, 134, 5492
10, 2, 1, 116, 4000, 12, 134, 6360
10, 2, 1, 116, 4000, 14, 134, 7436
10, 2, 1, 116, 4000, 16, 134, 8414
10, 2, 1, 116, 6000, 2, 134, 1089
10, 2, 1, 116, 6000, 4, 134, 2154
10, 2, 1, 116, 6000, 8, 134, 4240
10, 2, 1, 116, 6000, 10, 134, 5428
10, 2, 1, 116, 6000, 12, 134, 6387
10, 2, 1, 116, 6000, 14, 134, 7347
10, 2, 1, 116, 6000, 16, 134, 8401
10, 2, 1, 116, 8000, 2, 134, 1090
10, 2, 1, 116, 8000, 4, 134, 2143
10, 2, 1, 116, 8000, 8, 134, 4257
10, 2, 1, 116, 8000, 10, 134, 5378
10, 2, 1, 116, 8000, 12, 134, 6394
10, 2, 1, 116, 8000, 14, 134, 7366
10, 2, 1, 116, 8000, 16, 134, 8462
10, 2, 1, 116, 10000, 2, 134, 1079
10, 2, 1, 116, 10000, 4, 134, 2179
10, 2, 1, 116, 10000, 8, 134, 4276
10, 2, 1, 116, 10000, 10, 134, 5369
10, 2, 1, 116, 10000, 12, 134, 6291
10, 2, 1, 116, 10000, 14, 134, 7438
10, 2, 1, 116, 10000, 16, 134, 8451
10, 2, 1, 116, 15000, 2, 134, 1076
10, 2, 1, 116, 15000, 4, 134, 2163
10, 2, 1, 116, 15000, 8, 134, 4228
10, 2, 1, 116, 15000, 10, 134, 5341
10, 2, 1, 116, 15000, 12, 134, 6274
10, 2, 1, 116, 15000, 14, 134, 7392
10, 2, 1, 116, 15000, 16, 134, 8223
10, 2, 1, 116, 20000, 2, 134, 1069
10, 2, 1, 116, 20000, 4, 134, 2138
10, 2, 1, 116, 20000, 8, 134, 4266
10, 2, 1, 116, 20000, 10, 134, 5309
10, 2, 1, 116, 20000, 12, 134, 6516
10, 2, 1, 116, 20000, 14, 134, 7461
10, 2, 1, 116, 20000, 16, 134, 8408
10, 3, 1, 116, 2000, 2, 116, 364
10, 3, 1, 116, 2000, 4, 116, 701
10, 3, 1, 116, 2000, 8, 116, 1355
10, 3, 1, 116, 2000, 10, 116, 1717
10, 3, 1, 116, 2000, 12, 116, 2024
10, 3, 1, 116, 2000, 14, 116, 2322
10, 3, 1, 116, 2000, 16, 116, 2637
10, 3, 1, 116, 4000, 2, 116, 366
10, 3, 1, 116, 4000, 4, 116, 705
10, 3, 1, 116, 4000, 8, 116, 1364
10, 3, 1, 116, 4000, 10, 116, 1717
10, 3, 1, 116, 4000, 12, 116, 2023
10, 3, 1, 116, 4000, 14, 116, 2335
10, 3, 1, 116, 4000, 16, 116, 2656
10, 3, 1, 116, 6000, 2, 116, 366
10, 3, 1, 116, 6000, 4, 116, 705
10, 3, 1, 116, 6000, 8, 116, 1368
10, 3, 1, 116, 6000, 10, 116, 1715
10, 3, 1, 116, 6000, 12, 116, 2024
10, 3, 1, 116, 6000, 14, 116, 2329
10, 3, 1, 116, 6000, 16, 116, 2640
10, 3, 1, 116, 8000, 2, 116, 365
10, 3, 1, 116, 8000, 4, 116, 705
10, 3, 1, 116, 8000, 8, 116, 1350
10, 3, 1, 116, 8000, 10, 116, 1716
10, 3, 1, 116, 8000, 12, 116, 2028
10, 3, 1, 116, 8000, 14, 116, 2327
10, 3, 1, 116, 8000, 16, 116, 2651
10, 3, 1, 116, 10000, 2, 116, 362
10, 3, 1, 116, 10000, 4, 116, 705
10, 3, 1, 116, 10000, 8, 116, 1356
10, 3, 1, 116, 10000, 10, 116, 1708
10, 3, 1, 116, 10000, 12, 116, 2026
10, 3, 1, 116, 10000, 14, 116, 2339
10, 3, 1, 116, 10000, 16, 116, 2642
10, 3, 1, 116, 15000, 2, 116, 366
10, 3, 1, 116, 15000, 4, 116, 706
10, 3, 1, 116, 15000, 8, 116, 1358
10, 3, 1, 116, 15000, 10, 116, 1711
10, 3, 1, 116, 15000, 12, 116, 2026
10, 3, 1, 116, 15000, 14, 116, 2350
10, 3, 1, 116, 15000, 16, 116, 2662
10, 3, 1, 116, 20000, 2, 116, 368
10, 3, 1, 116, 20000, 4, 116, 709
10, 3, 1, 116, 20000, 8, 116, 1369
10, 3, 1, 116, 20000, 10, 116, 1718
10, 3, 1, 116, 20000, 12, 116, 2044
10, 3, 1, 116, 20000, 14, 116, 2344
10, 3, 1, 116, 20000, 16, 116, 2655
10, 4, 1, 116, 2000, 2, 116, 317
10, 4, 1, 116, 2000, 4, 116, 597
10, 4, 1, 116, 2000, 8, 116, 1149
10, 4, 1, 116, 2000, 10, 116, 1434
10, 4, 1, 116, 2000, 12, 116, 1704
10, 4, 1, 116, 2000, 14, 116, 1946
10, 4, 1, 116, 2000, 16, 116, 2217
10, 4, 1, 116, 4000, 2, 116, 315
10, 4, 1, 116, 4000, 4, 116, 603
10, 4, 1, 116, 4000, 8, 116, 1142
10, 4, 1, 116, 4000, 10, 116, 1431
10, 4, 1, 116, 4000, 12, 116, 1713
10, 4, 1, 116, 4000, 14, 116, 1972
10, 4, 1, 116, 4000, 16, 116, 2221
10, 4, 1, 116, 6000, 2, 116, 320
10, 4, 1, 116, 6000, 4, 116, 604
10, 4, 1, 116, 6000, 8, 116, 1154
10, 4, 1, 116, 6000, 10, 116, 1446
10, 4, 1, 116, 6000, 12, 116, 1702
10, 4, 1, 116, 6000, 14, 116, 1962
10, 4, 1, 116, 6000, 16, 116, 2227
10, 4, 1, 116, 8000, 2, 116, 316
10, 4, 1, 116, 8000, 4, 116, 599
10, 4, 1, 116, 8000, 8, 116, 1149
10, 4, 1, 116, 8000, 10, 116, 1437
10, 4, 1, 116, 8000, 12, 116, 1696
10, 4, 1, 116, 8000, 14, 116, 1958
10, 4, 1, 116, 8000, 16, 116, 2210
10, 4, 1, 116, 10000, 2, 116, 316
10, 4, 1, 116, 10000, 4, 116, 597
10, 4, 1, 116, 10000, 8, 116, 1145
10, 4, 1, 116, 10000, 10, 116, 1435
10, 4, 1, 116, 10000, 12, 116, 1696
10, 4, 1, 116, 10000, 14, 116, 1950
10, 4, 1, 116, 10000, 16, 116, 2214
10, 4, 1, 116, 15000, 2, 116, 315
10, 4, 1, 116, 15000, 4, 116, 597
10, 4, 1, 116, 15000, 8, 116, 1148
10, 4, 1, 116, 15000, 10, 116, 1435
10, 4, 1, 116, 15000, 12, 116, 1695
10, 4, 1, 116, 15000, 14, 116, 1961
10, 4, 1, 116, 15000, 16, 116, 2220
10, 4, 1, 116, 20000, 2, 116, 315
10, 4, 1, 116, 20000, 4, 116, 596
10, 4, 1, 116, 20000, 8, 116, 1148
10, 4, 1, 116, 20000, 10, 116, 1436
10, 4, 1, 116, 20000, 12, 116, 1711
10, 4, 1, 116, 20000, 14, 116, 1952
10, 4, 1, 116, 20000, 16, 116, 2205
11, 2, 1, 116, 2000, 2, 120, 2367
11, 2, 1, 116, 2000, 4, 123, 4702
11, 2, 1, 116, 2000, 8, 120, 9255
11, 2, 1, 116, 2000, 10, 120, 11701
11, 2, 1, 116, 2000, 12, 123, 13915
11, 2, 1, 116, 2000, 14, 123, 16162
11, 2, 1, 116, 2000, 16, 120, 18347
11, 2, 1, 116, 4000, 2, 120, 2360
11, 2, 1, 116, 4000, 4, 123, 4697
11, 2, 1, 116, 4000, 8, 120, 9288
11, 2, 1, 116, 4000, 10, 120, 11700
11, 2, 1, 116, 4000, 12, 120, 13904
11, 2, 1, 116, 4000, 14, 120, 16111
11, 2, 1, 116, 4000, 16, 120, 18266
11, 2, 1, 116, 6000, 2, 120, 2365
11, 2, 1, 116, 6000, 4, 120, 4705
11, 2, 1, 116, 6000, 8, 120, 9251
11, 2, 1, 116, 6000, 10, 120, 11689
11, 2, 1, 116, 6000, 12, 123, 13954
11, 2, 1, 116, 6000, 14, 120, 16202
11, 2, 1, 116, 6000, 16, 120, 18324
11, 2, 1, 116, 8000, 2, 120, 2368
11, 2, 1, 116, 8000, 4, 123, 4699
11, 2, 1, 116, 8000, 8, 120, 9277
11, 2, 1, 116, 8000, 10, 120, 11689
11, 2, 1, 116, 8000, 12, 123, 13887
11, 2, 1, 116, 8000, 14, 123, 16069
11, 2, 1, 116, 8000, 16, 120, 18417
11, 2, 1, 116, 10000, 2, 120, 2368
11, 2, 1, 116, 10000, 4, 120, 4703
11, 2, 1, 116, 10000, 8, 123, 9270
11, 2, 1, 116, 10000, 10, 120, 11643
11, 2, 1, 116, 10000, 12, 120, 13904
11, 2, 1, 116, 10000, 14, 123, 16141
11, 2, 1, 116, 10000, 16, 123, 18330
11, 2, 1, 116, 15000, 2, 120, 2357
11, 2, 1, 116, 15000, 4, 123, 4719
11, 2, 1, 116, 15000, 8, 123, 9280
11, 2, 1, 116, 15000, 10, 123, 11662
11, 2, 1, 116, 15000, 12, 123, 13856
11, 2, 1, 116, 15000, 14, 120, 16154
11, 2, 1, 116, 15000, 16, 120, 18426
11, 2, 1, 116, 20000, 2, 123, 2354
11, 2, 1, 116, 20000, 4, 123, 4679
11, 2, 1, 116, 20000, 8, 123, 9299
11, 2, 1, 116, 20000, 10, 123, 11613
11, 2, 1, 116, 20000, 12, 120, 13983
11, 2, 1, 116, 20000, 14, 120, 16192
11, 2, 1, 116, 20000, 16, 120, 18377
11, 3, 1, 116, 2000, 2, 116, 371
11, 3, 1, 116, 2000, 4, 116, 715
11, 3, 1, 116, 2000, 8, 116, 1382
11, 3, 1, 116, 2000, 10, 116, 1734
11, 3, 1, 116, 2000, 12, 116, 2064
11, 3, 1, 116, 2000, 14, 116, 2383
11, 3, 1, 116, 2000, 16, 116, 2695
11, 3, 1, 116, 4000, 2, 116, 372
11, 3, 1, 116, 4000, 4, 116, 718
11, 3, 1, 116, 4000, 8, 116, 1386
11, 3, 1, 116, 4000, 10, 116, 1758
11, 3, 1, 116, 4000, 12, 116, 2086
11, 3, 1, 116, 4000, 14, 116, 2372
11, 3, 1, 116, 4000, 16, 116, 2712
11, 3, 1, 116, 6000, 2, 116, 374
11, 3, 1, 116, 6000, 4, 116, 720
11, 3, 1, 116, 6000, 8, 116, 1388
11, 3, 1, 116, 6000, 10, 116, 1754
11, 3, 1, 116, 6000, 12, 116, 2080
11, 3, 1, 116, 6000, 14, 116, 2387
11, 3, 1, 116, 6000, 16, 116, 2721
11, 3, 1, 116, 8000, 2, 116, 372
11, 3, 1, 116, 8000, 4, 116, 724
11, 3, 1, 116, 8000, 8, 116, 1381
11, 3, 1, 116, 8000, 10, 116, 1760
11, 3, 1, 116, 8000, 12, 116, 2050
11, 3, 1, 116, 8000, 14, 116, 2396
11, 3, 1, 116, 8000, 16, 116, 2693
11, 3, 1, 116, 10000, 2, 116, 369
11, 3, 1, 116, 10000, 4, 116, 713
11, 3, 1, 116, 10000, 8, 116, 1382
11, 3, 1, 116, 10000, 10, 116, 1754
11, 3, 1, 116, 10000, 12, 116, 2080
11, 3, 1, 116, 10000, 14, 116, 2382
11, 3, 1, 116, 10000, 16, 116, 2678
11, 3, 1, 116, 15000, 2, 116, 370
11, 3, 1, 116, 15000, 4, 116, 716
11, 3, 1, 116, 15000, 8, 116, 1392
11, 3, 1, 116, 15000, 10, 116, 1729
11, 3, 1, 116, 15000, 12, 116, 2079
11, 3, 1, 116, 15000, 14, 116, 2392
11, 3, 1, 116, 15000, 16, 116, 2719
11, 3, 1, 116, 20000, 2, 116, 372
11, 3, 1, 116, 20000, 4, 116, 719
11, 3, 1, 116, 20000, 8, 116, 1397
11, 3, 1, 116, 20000, 10, 116, 1743
11, 3, 1, 116, 20000, 12, 116, 2055
11, 3, 1, 116, 20000, 14, 116, 2433
11, 3, 1, 116, 20000, 16, 116, 2702`
11, 4, 1, 116, 2000, 2, 116, 334
11, 4, 1, 116, 2000, 4, 116, 628
11, 4, 1, 116, 2000, 8, 116, 1177
11, 4, 1, 116, 2000, 10, 116, 1531
11, 4, 1, 116, 2000, 12, 116, 1786
11, 4, 1, 116, 2000, 14, 116, 2060
11, 4, 1, 116, 2000, 16, 116, 2298
11, 4, 1, 116, 4000, 2, 116, 326
11, 4, 1, 116, 4000, 4, 116, 613
11, 4, 1, 116, 4000, 8, 116, 1184
11, 4, 1, 116, 4000, 10, 116, 1484
11, 4, 1, 116, 4000, 12, 116, 1742
11, 4, 1, 116, 4000, 14, 116, 2027
11, 4, 1, 116, 4000, 16, 116, 2298
11, 4, 1, 116, 6000, 2, 116, 321
11, 4, 1, 116, 6000, 4, 116, 619
11, 4, 1, 116, 6000, 8, 116, 1188
11, 4, 1, 116, 6000, 10, 116, 1498
11, 4, 1, 116, 6000, 12, 116, 1776
11, 4, 1, 116, 6000, 14, 116, 2012
11, 4, 1, 116, 6000, 16, 116, 2294
11, 4, 1, 116, 8000, 2, 116, 327
11, 4, 1, 116, 8000, 4, 116, 612
11, 4, 1, 116, 8000, 8, 116, 1182
11, 4, 1, 116, 8000, 10, 116, 1528
11, 4, 1, 116, 8000, 12, 116, 1804
11, 4, 1, 116, 8000, 14, 116, 2074
11, 4, 1, 116, 8000, 16, 116, 2285
11, 4, 1, 116, 10000, 2, 116, 323
11, 4, 1, 116, 10000, 4, 116, 613
11, 4, 1, 116, 10000, 8, 116, 1180
11, 4, 1, 116, 10000, 10, 116, 1484
11, 4, 1, 116, 10000, 12, 116, 1755
11, 4, 1, 116, 10000, 14, 116, 2012
11, 4, 1, 116, 10000, 16, 116, 2276
11, 4, 1, 116, 15000, 2, 116, 325
11, 4, 1, 116, 15000, 4, 116, 612
11, 4, 1, 116, 15000, 8, 116, 1177
11, 4, 1, 116, 15000, 10, 116, 1482
11, 4, 1, 116, 15000, 12, 116, 1732
11, 4, 1, 116, 15000, 14, 116, 2005
11, 4, 1, 116, 15000, 16, 116, 2281
11, 4, 1, 116, 20000, 2, 116, 323
11, 4, 1, 116, 20000, 4, 116, 608
11, 4, 1, 116, 20000, 8, 116, 1176
11, 4, 1, 116, 20000, 10, 116, 1487
11, 4, 1, 116, 20000, 12, 116, 1745
11, 4, 1, 116, 20000, 14, 116, 2010
11, 4, 1, 116, 20000, 16, 116, 2277
